p tw 134 278
1 13
1 50
1 51
1 72
1 73
1 87
1 109
1 110
2 84
2 85
2 121
2 122
3 37
3 38
3 81
3 82
3 118
3 119
4 46
4 47
4 86
4 100
4 101
5 49
5 71
5 72
5 104
5 105
5 108
5 109
6 59
6 130
6 131
7 51
7 70
7 71
7 107
7 108
8 52
8 92
8 93
9 28
9 54
9 55
9 67
9 97
9 98
10 53
10 54
10 85
10 122
11 28
11 80
11 81
11 89
11 117
11 118
12 42
12 43
12 60
12 61
12 91
12 92
12 125
12 126
13 34
13 87
14 79
14 80
14 115
14 116
15 41
15 73
15 74
15 105
15 110
15 111
16 74
16 75
16 111
16 112
17 83
17 84
17 120
17 121
18 34
18 76
18 77
18 113
18 114
19 57
19 58
19 99
19 100
19 129
19 130
19 133
20 56
20 57
20 129
21 52
21 53
21 62
21 63
21 94
21 95
21 123
22 43
22 44
22 78
22 79
22 90
22 91
22 116
22 117
23 37
23 60
23 90
24 50
24 69
24 70
24 106
24 107
25 38
25 39
25 64
25 65
25 95
25 96
25 123
25 124
26 40
26 41
26 101
26 102
27 48
27 49
27 131
27 132
27 133
27 134
28 67
28 88
28 89
29 45
29 46
29 68
29 98
29 99
30 77
30 78
30 114
30 115
31 58
31 59
31 65
31 66
31 102
31 103
31 124
32 63
32 64
32 96
32 97
32 127
32 128
33 44
33 45
33 61
33 62
33 82
33 83
33 93
33 94
33 119
33 120
33 126
33 127
34 75
34 76
34 86
34 87
34 88
34 112
34 113
35 68
35 69
35 106
36 66
36 67
36 103
36 104
36 128
37 38
38 39
39 40
40 41
42 43
42 125
43 44
44 45
45 46
46 47
47 48
48 49
50 51
52 53
53 54
54 55
55 56
56 57
57 58
58 59
60 61
61 62
62 63
63 64
64 65
65 66
68 69
69 70
70 71
71 72
72 73
73 74
74 75
75 76
76 77
77 78
78 79
79 80
80 81
81 82
82 83
83 84
84 85
86 87
88 89
90 91
91 92
92 93
93 94
94 95
95 96
96 97
97 98
98 99
99 100
100 101
101 102
102 103
103 104
104 105
106 107
107 108
108 109
109 110
110 111
111 112
112 113
113 114
114 115
115 116
116 117
117 118
118 119
119 120
120 121
121 122
123 124
125 126
126 127
127 128
129 130
130 131
131 132
132 134
133 134
